p tw 20 91
1 2
1 11
1 13
1 20
1 4
1 5
1 6
1 7
1 10
2 13
2 14
2 15
2 16
2 18
2 19
2 5
2 6
2 7
2 8
2 10
11 12
11 13
11 14
11 15
11 16
11 17
11 18
11 19
11 20
12 13
12 14
12 16
12 18
12 19
12 20
13 14
13 15
13 16
13 18
13 19
13 20
14 17
14 20
15 20
16 19
16 20
17 20
3 11
3 13
3 16
3 18
3 19
3 4
3 6
3 9
4 13
4 19
4 6
4 7
4 8
5 12
5 13
5 15
5 17
5 8
5 10
6 13
6 15
6 16
6 17
6 19
6 20
6 9
6 10
7 12
7 16
7 9
7 10
8 13
8 14
9 12
9 14
9 15
9 16
9 20
10 11
10 14
10 16
10 18
10 19
10 20
